55
120
96	4
95	2
93	4
92	1
91	1
90	1
89	2
87	3
85	1
84	1
82	2
79	2
78	1
77	2
75	1
73	1
72	1
70	1
69	1
68	4
66	3
65	2
64	1
63	1
61	1
60	2
58	2
56	2
55	3
54	2
52	4
51	1
50	3
49	2
48	1
47	2
45	2
44	2
43	1
42	2
40	2
39	2
38	2
37	1
36	1
35	1
34	1
33	2
32	2
31	2
30	2
29	2
27	1
26	3
24	1
